Route 1 : 0 70 0
Route 1 : 0 70 77 0
Route 1 : 0 78 70 77 0
Route 1 : 0 78 70 73 77 0
Route 1 : 0 81 78 70 73 77 0
Route 1 : 0 81 78 71 70 73 77 0
Route 1 : 0 81 78 76 71 70 73 77 0
Route 1 : 0 81 78 76 71 70 73 77 0
Route 2 : 0 80 0
Route 1 : 0 81 78 76 71 70 73 77 0
Route 2 : 0 79 80 0
Route 1 : 0 81 78 76 71 70 73 77 0
Route 2 : 0 72 79 80 0
Route 1 : 0 81 78 76 71 70 73 77 0
Route 2 : 0 62 72 79 80 0
Route 1 : 0 81 78 76 71 70 73 77 0
Route 2 : 0 62 74 72 79 80 0
Route 1 : 0 81 78 76 71 70 73 77 0
Route 2 : 0 62 74 72 61 79 80 0
Route 1 : 0 81 78 76 71 70 73 77 0
Route 2 : 0 63 62 74 72 61 79 80 0
Route 1 : 0 81 78 76 71 70 73 77 0
Route 2 : 0 63 62 74 72 61 79 80 0
Route 3 : 0 60 0
Route 1 : 0 81 78 76 71 70 73 77 0
Route 2 : 0 63 62 74 72 61 79 80 0
Route 3 : 0 60 59 0
Route 1 : 0 81 78 76 71 70 73 77 0
Route 2 : 0 63 62 74 72 61 79 80 0
Route 3 : 0 55 60 59 0
Route 1 : 0 81 78 76 71 70 73 77 0
Route 2 : 0 63 62 74 72 61 79 80 0
Route 3 : 0 55 58 60 59 0
Route 1 : 0 81 78 76 71 70 73 77 0
Route 2 : 0 63 62 74 72 61 79 80 0
Route 3 : 0 55 53 58 60 59 0
Route 1 : 0 81 78 76 71 70 73 77 0
Route 2 : 0 63 62 74 72 61 79 80 0
Route 3 : 0 55 53 56 58 60 59 0
Route 1 : 0 81 78 76 71 70 73 77 0
Route 2 : 0 63 62 74 72 61 79 80 0
Route 3 : 0 55 54 53 56 58 60 59 0
Route 1 : 0 81 78 76 71 70 73 77 0
Route 2 : 0 63 62 74 72 61 79 80 0
Route 3 : 0 55 54 53 56 58 60 59 0
Route 4 : 0 92 0
Route 1 : 0 81 78 76 71 70 73 77 0
Route 2 : 0 63 62 74 72 61 79 80 0
Route 3 : 0 55 54 53 56 58 60 59 0
Route 4 : 0 92 97 0
Route 1 : 0 81 78 76 71 70 73 77 0
Route 2 : 0 63 62 74 72 61 79 80 0
Route 3 : 0 55 54 53 56 58 60 59 0
Route 4 : 0 94 92 97 0
Route 1 : 0 81 78 76 71 70 73 77 0
Route 2 : 0 63 62 74 72 61 79 80 0
Route 3 : 0 55 54 53 56 58 60 59 0
Route 4 : 0 95 94 92 97 0
Route 1 : 0 81 78 76 71 70 73 77 0
Route 2 : 0 63 62 74 72 61 79 80 0
Route 3 : 0 55 54 53 56 58 60 59 0
Route 4 : 0 95 94 92 93 97 0
Route 1 : 0 81 78 76 71 70 73 77 0
Route 2 : 0 63 62 74 72 61 79 80 0
Route 3 : 0 55 54 53 56 58 60 59 0
Route 4 : 0 98 95 94 92 93 97 0
Route 1 : 0 81 78 76 71 70 73 77 0
Route 2 : 0 63 62 74 72 61 79 80 0
Route 3 : 0 55 54 53 56 58 60 59 0
Route 4 : 0 98 96 95 94 92 93 97 0
Route 1 : 0 81 78 76 71 70 73 77 0
Route 2 : 0 63 62 74 72 61 79 80 0
Route 3 : 0 55 54 53 56 58 60 59 0
Route 4 : 0 98 96 95 94 92 93 97 0
Route 5 : 0 38 0
Route 1 : 0 81 78 76 71 70 73 77 0
Route 2 : 0 63 62 74 72 61 79 80 0
Route 3 : 0 55 54 53 56 58 60 59 0
Route 4 : 0 98 96 95 94 92 93 97 0
Route 5 : 0 38 36 0
Route 1 : 0 81 78 76 71 70 73 77 0
Route 2 : 0 63 62 74 72 61 79 80 0
Route 3 : 0 55 54 53 56 58 60 59 0
Route 4 : 0 98 96 95 94 92 93 97 0
Route 5 : 0 38 39 36 0
Route 1 : 0 81 78 76 71 70 73 77 0
Route 2 : 0 63 62 74 72 61 79 80 0
Route 3 : 0 55 54 53 56 58 60 59 0
Route 4 : 0 98 96 95 94 92 93 97 0
Route 5 : 0 38 39 36 34 0
Route 1 : 0 81 78 76 71 70 73 77 0
Route 2 : 0 63 62 74 72 61 79 80 0
Route 3 : 0 55 54 53 56 58 60 59 0
Route 4 : 0 98 96 95 94 92 93 97 0
Route 5 : 0 37 38 39 36 34 0
Route 1 : 0 81 78 76 71 70 73 77 0
Route 2 : 0 63 62 74 72 61 79 80 0
Route 3 : 0 55 54 53 56 58 60 59 0
Route 4 : 0 98 96 95 94 92 93 97 0
Route 5 : 0 31 37 38 39 36 34 0
Route 1 : 0 81 78 76 71 70 73 77 0
Route 2 : 0 63 62 74 72 61 79 80 0
Route 3 : 0 55 54 53 56 58 60 59 0
Route 4 : 0 98 96 95 94 92 93 97 0
Route 5 : 0 31 35 37 38 39 36 34 0
Route 1 : 0 81 78 76 71 70 73 77 0
Route 2 : 0 63 62 74 72 61 79 80 0
Route 3 : 0 55 54 53 56 58 60 59 0
Route 4 : 0 98 96 95 94 92 93 97 0
Route 5 : 0 31 35 37 38 39 36 34 0
Route 6 : 0 16 0
Route 1 : 0 81 78 76 71 70 73 77 0
Route 2 : 0 63 62 74 72 61 79 80 0
Route 3 : 0 55 54 53 56 58 60 59 0
Route 4 : 0 98 96 95 94 92 93 97 0
Route 5 : 0 31 35 37 38 39 36 34 0
Route 6 : 0 15 16 0
Route 1 : 0 81 78 76 71 70 73 77 0
Route 2 : 0 63 62 74 72 61 79 80 0
Route 3 : 0 55 54 53 56 58 60 59 0
Route 4 : 0 98 96 95 94 92 93 97 0
Route 5 : 0 31 35 37 38 39 36 34 0
Route 6 : 0 15 16 14 0
Route 1 : 0 81 78 76 71 70 73 77 0
Route 2 : 0 63 62 74 72 61 79 80 0
Route 3 : 0 55 54 53 56 58 60 59 0
Route 4 : 0 98 96 95 94 92 93 97 0
Route 5 : 0 31 35 37 38 39 36 34 0
Route 6 : 0 19 15 16 14 0
Route 1 : 0 81 78 76 71 70 73 77 0
Route 2 : 0 63 62 74 72 61 79 80 0
Route 3 : 0 55 54 53 56 58 60 59 0
Route 4 : 0 98 96 95 94 92 93 97 0
Route 5 : 0 31 35 37 38 39 36 34 0
Route 6 : 0 18 19 15 16 14 0
Route 1 : 0 81 78 76 71 70 73 77 0
Route 2 : 0 63 62 74 72 61 79 80 0
Route 3 : 0 55 54 53 56 58 60 59 0
Route 4 : 0 98 96 95 94 92 93 97 0
Route 5 : 0 31 35 37 38 39 36 34 0
Route 6 : 0 13 18 19 15 16 14 0
Route 1 : 0 81 78 76 71 70 73 77 0
Route 2 : 0 63 62 74 72 61 79 80 0
Route 3 : 0 55 54 53 56 58 60 59 0
Route 4 : 0 98 96 95 94 92 93 97 0
Route 5 : 0 31 35 37 38 39 36 34 0
Route 6 : 0 13 17 18 19 15 16 14 0
Route 1 : 0 81 78 76 71 70 73 77 0
Route 2 : 0 63 62 74 72 61 79 80 0
Route 3 : 0 55 54 53 56 58 60 59 0
Route 4 : 0 98 96 95 94 92 93 97 0
Route 5 : 0 31 35 37 38 39 36 34 0
Route 6 : 0 13 17 18 19 15 16 14 0
Route 7 : 0 12 0
Route 1 : 0 81 78 76 71 70 73 77 0
Route 2 : 0 63 62 74 72 61 79 80 0
Route 3 : 0 55 54 53 56 58 60 59 0
Route 4 : 0 98 96 95 94 92 93 97 0
Route 5 : 0 31 35 37 38 39 36 34 0
Route 6 : 0 13 17 18 19 15 16 14 0
Route 7 : 0 9 12 0
Route 1 : 0 81 78 76 71 70 73 77 0
Route 2 : 0 63 62 74 72 61 79 80 0
Route 3 : 0 55 54 53 56 58 60 59 0
Route 4 : 0 98 96 95 94 92 93 97 0
Route 5 : 0 31 35 37 38 39 36 34 0
Route 6 : 0 13 17 18 19 15 16 14 0
Route 7 : 0 10 9 12 0
Route 1 : 0 81 78 76 71 70 73 77 0
Route 2 : 0 63 62 74 72 61 79 80 0
Route 3 : 0 55 54 53 56 58 60 59 0
Route 4 : 0 98 96 95 94 92 93 97 0
Route 5 : 0 31 35 37 38 39 36 34 0
Route 6 : 0 13 17 18 19 15 16 14 0
Route 7 : 0 10 11 9 12 0
Route 1 : 0 81 78 76 71 70 73 77 0
Route 2 : 0 63 62 74 72 61 79 80 0
Route 3 : 0 55 54 53 56 58 60 59 0
Route 4 : 0 98 96 95 94 92 93 97 0
Route 5 : 0 31 35 37 38 39 36 34 0
Route 6 : 0 13 17 18 19 15 16 14 0
Route 7 : 0 7 10 11 9 12 0
Route 1 : 0 81 78 76 71 70 73 77 0
Route 2 : 0 63 62 74 72 61 79 80 0
Route 3 : 0 55 54 53 56 58 60 59 0
Route 4 : 0 98 96 95 94 92 93 97 0
Route 5 : 0 31 35 37 38 39 36 34 0
Route 6 : 0 13 17 18 19 15 16 14 0
Route 7 : 0 7 10 11 9 12 4 0
Route 1 : 0 81 78 76 71 70 73 77 0
Route 2 : 0 63 62 74 72 61 79 80 0
Route 3 : 0 55 54 53 56 58 60 59 0
Route 4 : 0 98 96 95 94 92 93 97 0
Route 5 : 0 31 35 37 38 39 36 34 0
Route 6 : 0 13 17 18 19 15 16 14 0
Route 7 : 0 7 8 10 11 9 12 4 0
Route 1 : 0 81 78 76 71 70 73 77 0
Route 2 : 0 63 62 74 72 61 79 80 0
Route 3 : 0 55 54 53 56 58 60 59 0
Route 4 : 0 98 96 95 94 92 93 97 0
Route 5 : 0 31 35 37 38 39 36 34 0
Route 6 : 0 13 17 18 19 15 16 14 0
Route 7 : 0 7 8 10 11 9 12 4 0
Route 8 : 0 100 0
Route 1 : 0 81 78 76 71 70 73 77 0
Route 2 : 0 63 62 74 72 61 79 80 0
Route 3 : 0 55 54 53 56 58 60 59 0
Route 4 : 0 98 96 95 94 92 93 97 0
Route 5 : 0 31 35 37 38 39 36 34 0
Route 6 : 0 13 17 18 19 15 16 14 0
Route 7 : 0 7 8 10 11 9 12 4 0
Route 8 : 0 100 99 0
Route 1 : 0 81 78 76 71 70 73 77 0
Route 2 : 0 63 62 74 72 61 79 80 0
Route 3 : 0 55 54 53 56 58 60 59 0
Route 4 : 0 98 96 95 94 92 93 97 0
Route 5 : 0 31 35 37 38 39 36 34 0
Route 6 : 0 13 17 18 19 15 16 14 0
Route 7 : 0 7 8 10 11 9 12 4 0
Route 8 : 0 100 99 2 0
Route 1 : 0 81 78 76 71 70 73 77 0
Route 2 : 0 63 62 74 72 61 79 80 0
Route 3 : 0 55 54 53 56 58 60 59 0
Route 4 : 0 98 96 95 94 92 93 97 0
Route 5 : 0 31 35 37 38 39 36 34 0
Route 6 : 0 13 17 18 19 15 16 14 0
Route 7 : 0 7 8 10 11 9 12 4 0
Route 8 : 0 100 99 2 75 0
Route 1 : 0 81 78 76 71 70 73 77 0
Route 2 : 0 63 62 74 72 61 79 80 0
Route 3 : 0 55 54 53 56 58 60 59 0
Route 4 : 0 98 96 95 94 92 93 97 0
Route 5 : 0 31 35 37 38 39 36 34 0
Route 6 : 0 13 17 18 19 15 16 14 0
Route 7 : 0 7 8 10 11 9 12 4 0
Route 8 : 0 100 99 2 1 75 0
Route 1 : 0 81 78 76 71 70 73 77 0
Route 2 : 0 63 62 74 72 61 79 80 0
Route 3 : 0 55 54 53 56 58 60 59 0
Route 4 : 0 98 96 95 94 92 93 97 0
Route 5 : 0 31 35 37 38 39 36 34 0
Route 6 : 0 13 17 18 19 15 16 14 0
Route 7 : 0 7 8 10 11 9 12 4 0
Route 8 : 0 84 100 99 2 1 75 0
Route 1 : 0 81 78 76 71 70 73 77 0
Route 2 : 0 63 62 74 72 61 79 80 0
Route 3 : 0 55 54 53 56 58 60 59 0
Route 4 : 0 98 96 95 94 92 93 97 0
Route 5 : 0 31 35 37 38 39 36 34 0
Route 6 : 0 13 17 18 19 15 16 14 0
Route 7 : 0 7 8 10 11 9 12 4 0
Route 8 : 0 84 100 99 2 1 75 0
Route 9 : 0 82 0
Route 1 : 0 81 78 76 71 70 73 77 0
Route 2 : 0 63 62 74 72 61 79 80 0
Route 3 : 0 55 54 53 56 58 60 59 0
Route 4 : 0 98 96 95 94 92 93 97 0
Route 5 : 0 31 35 37 38 39 36 34 0
Route 6 : 0 13 17 18 19 15 16 14 0
Route 7 : 0 7 8 10 11 9 12 4 0
Route 8 : 0 84 100 99 2 1 75 0
Route 9 : 0 86 82 0
Route 1 : 0 81 78 76 71 70 73 77 0
Route 2 : 0 63 62 74 72 61 79 80 0
Route 3 : 0 55 54 53 56 58 60 59 0
Route 4 : 0 98 96 95 94 92 93 97 0
Route 5 : 0 31 35 37 38 39 36 34 0
Route 6 : 0 13 17 18 19 15 16 14 0
Route 7 : 0 7 8 10 11 9 12 4 0
Route 8 : 0 84 100 99 2 1 75 0
Route 9 : 0 86 83 82 0
Route 1 : 0 81 78 76 71 70 73 77 0
Route 2 : 0 63 62 74 72 61 79 80 0
Route 3 : 0 55 54 53 56 58 60 59 0
Route 4 : 0 98 96 95 94 92 93 97 0
Route 5 : 0 31 35 37 38 39 36 34 0
Route 6 : 0 13 17 18 19 15 16 14 0
Route 7 : 0 7 8 10 11 9 12 4 0
Route 8 : 0 84 100 99 2 1 75 0
Route 9 : 0 86 83 82 89 0
Route 1 : 0 81 78 76 71 70 73 77 0
Route 2 : 0 63 62 74 72 61 79 80 0
Route 3 : 0 55 54 53 56 58 60 59 0
Route 4 : 0 98 96 95 94 92 93 97 0
Route 5 : 0 31 35 37 38 39 36 34 0
Route 6 : 0 13 17 18 19 15 16 14 0
Route 7 : 0 7 8 10 11 9 12 4 0
Route 8 : 0 84 100 99 2 1 75 0
Route 9 : 0 86 83 82 85 89 0
Route 1 : 0 81 78 76 71 70 73 77 0
Route 2 : 0 63 62 74 72 61 79 80 0
Route 3 : 0 55 54 53 56 58 60 59 0
Route 4 : 0 98 96 95 94 92 93 97 0
Route 5 : 0 31 35 37 38 39 36 34 0
Route 6 : 0 13 17 18 19 15 16 14 0
Route 7 : 0 7 8 10 11 9 12 4 0
Route 8 : 0 84 100 99 2 1 75 0
Route 9 : 0 86 83 82 85 88 89 0
Route 1 : 0 81 78 76 71 70 73 77 0
Route 2 : 0 63 62 74 72 61 79 80 0
Route 3 : 0 55 54 53 56 58 60 59 0
Route 4 : 0 98 96 95 94 92 93 97 0
Route 5 : 0 31 35 37 38 39 36 34 0
Route 6 : 0 13 17 18 19 15 16 14 0
Route 7 : 0 7 8 10 11 9 12 4 0
Route 8 : 0 84 100 99 2 1 75 0
Route 9 : 0 86 83 82 85 88 89 91 0
Route 1 : 0 81 78 76 71 70 73 77 0
Route 2 : 0 63 62 74 72 61 79 80 0
Route 3 : 0 55 54 53 56 58 60 59 0
Route 4 : 0 98 96 95 94 92 93 97 0
Route 5 : 0 31 35 37 38 39 36 34 0
Route 6 : 0 13 17 18 19 15 16 14 0
Route 7 : 0 7 8 10 11 9 12 4 0
Route 8 : 0 84 100 99 2 1 75 0
Route 9 : 0 86 83 82 85 88 89 91 0
Route 10 : 0 57 0
Route 1 : 0 81 78 76 71 70 73 77 0
Route 2 : 0 63 62 74 72 61 79 80 0
Route 3 : 0 55 54 53 56 58 60 59 0
Route 4 : 0 98 96 95 94 92 93 97 0
Route 5 : 0 31 35 37 38 39 36 34 0
Route 6 : 0 13 17 18 19 15 16 14 0
Route 7 : 0 7 8 10 11 9 12 4 0
Route 8 : 0 84 100 99 2 1 75 0
Route 9 : 0 86 83 82 85 88 89 91 0
Route 10 : 0 57 44 0
Route 1 : 0 81 78 76 71 70 73 77 0
Route 2 : 0 63 62 74 72 61 79 80 0
Route 3 : 0 55 54 53 56 58 60 59 0
Route 4 : 0 98 96 95 94 92 93 97 0
Route 5 : 0 31 35 37 38 39 36 34 0
Route 6 : 0 13 17 18 19 15 16 14 0
Route 7 : 0 7 8 10 11 9 12 4 0
Route 8 : 0 84 100 99 2 1 75 0
Route 9 : 0 86 83 82 85 88 89 91 0
Route 10 : 0 57 40 44 0
Route 1 : 0 81 78 76 71 70 73 77 0
Route 2 : 0 63 62 74 72 61 79 80 0
Route 3 : 0 55 54 53 56 58 60 59 0
Route 4 : 0 98 96 95 94 92 93 97 0
Route 5 : 0 31 35 37 38 39 36 34 0
Route 6 : 0 13 17 18 19 15 16 14 0
Route 7 : 0 7 8 10 11 9 12 4 0
Route 8 : 0 84 100 99 2 1 75 0
Route 9 : 0 86 83 82 85 88 89 91 0
Route 10 : 0 57 40 44 48 0
Route 1 : 0 81 78 76 71 70 73 77 0
Route 2 : 0 63 62 74 72 61 79 80 0
Route 3 : 0 55 54 53 56 58 60 59 0
Route 4 : 0 98 96 95 94 92 93 97 0
Route 5 : 0 31 35 37 38 39 36 34 0
Route 6 : 0 13 17 18 19 15 16 14 0
Route 7 : 0 7 8 10 11 9 12 4 0
Route 8 : 0 84 100 99 2 1 75 0
Route 9 : 0 86 83 82 85 88 89 91 0
Route 10 : 0 57 40 44 46 48 0
Route 1 : 0 81 78 76 71 70 73 77 0
Route 2 : 0 63 62 74 72 61 79 80 0
Route 3 : 0 55 54 53 56 58 60 59 0
Route 4 : 0 98 96 95 94 92 93 97 0
Route 5 : 0 31 35 37 38 39 36 34 0
Route 6 : 0 13 17 18 19 15 16 14 0
Route 7 : 0 7 8 10 11 9 12 4 0
Route 8 : 0 84 100 99 2 1 75 0
Route 9 : 0 86 83 82 85 88 89 91 0
Route 10 : 0 57 40 44 46 45 48 0
Route 1 : 0 81 78 76 71 70 73 77 0
Route 2 : 0 63 62 74 72 61 79 80 0
Route 3 : 0 55 54 53 56 58 60 59 0
Route 4 : 0 98 96 95 94 92 93 97 0
Route 5 : 0 31 35 37 38 39 36 34 0
Route 6 : 0 13 17 18 19 15 16 14 0
Route 7 : 0 7 8 10 11 9 12 4 0
Route 8 : 0 84 100 99 2 1 75 0
Route 9 : 0 86 83 82 85 88 89 91 0
Route 10 : 0 57 25 40 44 46 45 48 0
Route 1 : 0 81 78 76 71 70 73 77 0
Route 2 : 0 63 62 74 72 61 79 80 0
Route 3 : 0 55 54 53 56 58 60 59 0
Route 4 : 0 98 96 95 94 92 93 97 0
Route 5 : 0 31 35 37 38 39 36 34 0
Route 6 : 0 13 17 18 19 15 16 14 0
Route 7 : 0 7 8 10 11 9 12 4 0
Route 8 : 0 84 100 99 2 1 75 0
Route 9 : 0 86 83 82 85 88 89 91 0
Route 10 : 0 57 25 40 44 46 45 48 0
Route 11 : 0 33 0
Route 1 : 0 81 78 76 71 70 73 77 0
Route 2 : 0 63 62 74 72 61 79 80 0
Route 3 : 0 55 54 53 56 58 60 59 0
Route 4 : 0 98 96 95 94 92 93 97 0
Route 5 : 0 31 35 37 38 39 36 34 0
Route 6 : 0 13 17 18 19 15 16 14 0
Route 7 : 0 7 8 10 11 9 12 4 0
Route 8 : 0 84 100 99 2 1 75 0
Route 9 : 0 86 83 82 85 88 89 91 0
Route 10 : 0 57 25 40 44 46 45 48 0
Route 11 : 0 32 33 0
Route 1 : 0 81 78 76 71 70 73 77 0
Route 2 : 0 63 62 74 72 61 79 80 0
Route 3 : 0 55 54 53 56 58 60 59 0
Route 4 : 0 98 96 95 94 92 93 97 0
Route 5 : 0 31 35 37 38 39 36 34 0
Route 6 : 0 13 17 18 19 15 16 14 0
Route 7 : 0 7 8 10 11 9 12 4 0
Route 8 : 0 84 100 99 2 1 75 0
Route 9 : 0 86 83 82 85 88 89 91 0
Route 10 : 0 57 25 40 44 46 45 48 0
Route 11 : 0 32 33 29 0
Route 1 : 0 81 78 76 71 70 73 77 0
Route 2 : 0 63 62 74 72 61 79 80 0
Route 3 : 0 55 54 53 56 58 60 59 0
Route 4 : 0 98 96 95 94 92 93 97 0
Route 5 : 0 31 35 37 38 39 36 34 0
Route 6 : 0 13 17 18 19 15 16 14 0
Route 7 : 0 7 8 10 11 9 12 4 0
Route 8 : 0 84 100 99 2 1 75 0
Route 9 : 0 86 83 82 85 88 89 91 0
Route 10 : 0 57 25 40 44 46 45 48 0
Route 11 : 0 32 33 29 30 0
Route 1 : 0 81 78 76 71 70 73 77 0
Route 2 : 0 63 62 74 72 61 79 80 0
Route 3 : 0 55 54 53 56 58 60 59 0
Route 4 : 0 98 96 95 94 92 93 97 0
Route 5 : 0 31 35 37 38 39 36 34 0
Route 6 : 0 13 17 18 19 15 16 14 0
Route 7 : 0 7 8 10 11 9 12 4 0
Route 8 : 0 84 100 99 2 1 75 0
Route 9 : 0 86 83 82 85 88 89 91 0
Route 10 : 0 57 25 40 44 46 45 48 0
Route 11 : 0 32 33 29 30 26 0
Route 1 : 0 81 78 76 71 70 73 77 0
Route 2 : 0 63 62 74 72 61 79 80 0
Route 3 : 0 55 54 53 56 58 60 59 0
Route 4 : 0 98 96 95 94 92 93 97 0
Route 5 : 0 31 35 37 38 39 36 34 0
Route 6 : 0 13 17 18 19 15 16 14 0
Route 7 : 0 7 8 10 11 9 12 4 0
Route 8 : 0 84 100 99 2 1 75 0
Route 9 : 0 86 83 82 85 88 89 91 0
Route 10 : 0 57 25 40 44 46 45 48 0
Route 11 : 0 32 33 29 30 28 26 0
Route 1 : 0 81 78 76 71 70 73 77 0
Route 2 : 0 63 62 74 72 61 79 80 0
Route 3 : 0 55 54 53 56 58 60 59 0
Route 4 : 0 98 96 95 94 92 93 97 0
Route 5 : 0 31 35 37 38 39 36 34 0
Route 6 : 0 13 17 18 19 15 16 14 0
Route 7 : 0 7 8 10 11 9 12 4 0
Route 8 : 0 84 100 99 2 1 75 0
Route 9 : 0 86 83 82 85 88 89 91 0
Route 10 : 0 57 25 40 44 46 45 48 0
Route 11 : 0 32 33 27 29 30 28 26 0
Route 1 : 0 81 78 76 71 70 73 77 0
Route 2 : 0 63 62 74 72 61 79 80 0
Route 3 : 0 55 54 53 56 58 60 59 0
Route 4 : 0 98 96 95 94 92 93 97 0
Route 5 : 0 31 35 37 38 39 36 34 0
Route 6 : 0 13 17 18 19 15 16 14 0
Route 7 : 0 7 8 10 11 9 12 4 0
Route 8 : 0 84 100 99 2 1 75 0
Route 9 : 0 86 83 82 85 88 89 91 0
Route 10 : 0 57 25 40 44 46 45 48 0
Route 11 : 0 32 33 27 29 30 28 26 0
Route 12 : 0 87 0
Route 1 : 0 81 78 76 71 70 73 77 0
Route 2 : 0 63 62 74 72 61 79 80 0
Route 3 : 0 55 54 53 56 58 60 59 0
Route 4 : 0 98 96 95 94 92 93 97 0
Route 5 : 0 31 35 37 38 39 36 34 0
Route 6 : 0 13 17 18 19 15 16 14 0
Route 7 : 0 7 8 10 11 9 12 4 0
Route 8 : 0 84 100 99 2 1 75 0
Route 9 : 0 86 83 82 85 88 89 91 0
Route 10 : 0 57 25 40 44 46 45 48 0
Route 11 : 0 32 33 27 29 30 28 26 0
Route 12 : 0 90 87 0
Route 1 : 0 81 78 76 71 70 73 77 0
Route 2 : 0 63 62 74 72 61 79 80 0
Route 3 : 0 55 54 53 56 58 60 59 0
Route 4 : 0 98 96 95 94 92 93 97 0
Route 5 : 0 31 35 37 38 39 36 34 0
Route 6 : 0 13 17 18 19 15 16 14 0
Route 7 : 0 7 8 10 11 9 12 4 0
Route 8 : 0 84 100 99 2 1 75 0
Route 9 : 0 86 83 82 85 88 89 91 0
Route 10 : 0 57 25 40 44 46 45 48 0
Route 11 : 0 32 33 27 29 30 28 26 0
Route 12 : 0 90 87 6 0
Route 1 : 0 81 78 76 71 70 73 77 0
Route 2 : 0 63 62 74 72 61 79 80 0
Route 3 : 0 55 54 53 56 58 60 59 0
Route 4 : 0 98 96 95 94 92 93 97 0
Route 5 : 0 31 35 37 38 39 36 34 0
Route 6 : 0 13 17 18 19 15 16 14 0
Route 7 : 0 7 8 10 11 9 12 4 0
Route 8 : 0 84 100 99 2 1 75 0
Route 9 : 0 86 83 82 85 88 89 91 0
Route 10 : 0 57 25 40 44 46 45 48 0
Route 11 : 0 32 33 27 29 30 28 26 0
Route 12 : 0 90 87 6 0
Route 13 : 0 51 0
Route 1 : 0 81 78 76 71 70 73 77 0
Route 2 : 0 63 62 74 72 61 79 80 0
Route 3 : 0 55 54 53 56 58 60 59 0
Route 4 : 0 98 96 95 94 92 93 97 0
Route 5 : 0 31 35 37 38 39 36 34 0
Route 6 : 0 13 17 18 19 15 16 14 0
Route 7 : 0 7 8 10 11 9 12 4 0
Route 8 : 0 84 100 99 2 1 75 0
Route 9 : 0 86 83 82 85 88 89 91 0
Route 10 : 0 57 25 40 44 46 45 48 0
Route 11 : 0 32 33 27 29 30 28 26 0
Route 12 : 0 90 87 6 0
Route 13 : 0 51 50 0
Route 1 : 0 81 78 76 71 70 73 77 0
Route 2 : 0 63 62 74 72 61 79 80 0
Route 3 : 0 55 54 53 56 58 60 59 0
Route 4 : 0 98 96 95 94 92 93 97 0
Route 5 : 0 31 35 37 38 39 36 34 0
Route 6 : 0 13 17 18 19 15 16 14 0
Route 7 : 0 7 8 10 11 9 12 4 0
Route 8 : 0 84 100 99 2 1 75 0
Route 9 : 0 86 83 82 85 88 89 91 0
Route 10 : 0 57 25 40 44 46 45 48 0
Route 11 : 0 32 33 27 29 30 28 26 0
Route 12 : 0 90 87 6 0
Route 13 : 0 51 50 47 0
Route 1 : 0 81 78 76 71 70 73 77 0
Route 2 : 0 63 62 74 72 61 79 80 0
Route 3 : 0 55 54 53 56 58 60 59 0
Route 4 : 0 98 96 95 94 92 93 97 0
Route 5 : 0 31 35 37 38 39 36 34 0
Route 6 : 0 13 17 18 19 15 16 14 0
Route 7 : 0 7 8 10 11 9 12 4 0
Route 8 : 0 84 100 99 2 1 75 0
Route 9 : 0 86 83 82 85 88 89 91 0
Route 10 : 0 57 25 40 44 46 45 48 0
Route 11 : 0 32 33 27 29 30 28 26 0
Route 12 : 0 90 87 6 0
Route 13 : 0 51 50 49 47 0
Route 1 : 0 81 78 76 71 70 73 77 0
Route 2 : 0 63 62 74 72 61 79 80 0
Route 3 : 0 55 54 53 56 58 60 59 0
Route 4 : 0 98 96 95 94 92 93 97 0
Route 5 : 0 31 35 37 38 39 36 34 0
Route 6 : 0 13 17 18 19 15 16 14 0
Route 7 : 0 7 8 10 11 9 12 4 0
Route 8 : 0 84 100 99 2 1 75 0
Route 9 : 0 86 83 82 85 88 89 91 0
Route 10 : 0 57 25 40 44 46 45 48 0
Route 11 : 0 32 33 27 29 30 28 26 0
Route 12 : 0 90 87 6 0
Route 13 : 0 51 50 52 49 47 0
Route 1 : 0 81 78 76 71 70 73 77 0
Route 2 : 0 63 62 74 72 61 79 80 0
Route 3 : 0 55 54 53 56 58 60 59 0
Route 4 : 0 98 96 95 94 92 93 97 0
Route 5 : 0 31 35 37 38 39 36 34 0
Route 6 : 0 13 17 18 19 15 16 14 0
Route 7 : 0 7 8 10 11 9 12 4 0
Route 8 : 0 84 100 99 2 1 75 0
Route 9 : 0 86 83 82 85 88 89 91 0
Route 10 : 0 57 25 40 44 46 45 48 0
Route 11 : 0 32 33 27 29 30 28 26 0
Route 12 : 0 90 87 6 0
Route 13 : 0 64 51 50 52 49 47 0
Route 1 : 0 81 78 76 71 70 73 77 0
Route 2 : 0 63 62 74 72 61 79 80 0
Route 3 : 0 55 54 53 56 58 60 59 0
Route 4 : 0 98 96 95 94 92 93 97 0
Route 5 : 0 31 35 37 38 39 36 34 0
Route 6 : 0 13 17 18 19 15 16 14 0
Route 7 : 0 7 8 10 11 9 12 4 0
Route 8 : 0 84 100 99 2 1 75 0
Route 9 : 0 86 83 82 85 88 89 91 0
Route 10 : 0 57 25 40 44 46 45 48 0
Route 11 : 0 32 33 27 29 30 28 26 0
Route 12 : 0 90 87 6 0
Route 13 : 0 64 51 50 52 49 47 0
Route 14 : 0 68 0
Route 1 : 0 81 78 76 71 70 73 77 0
Route 2 : 0 63 62 74 72 61 79 80 0
Route 3 : 0 55 54 53 56 58 60 59 0
Route 4 : 0 98 96 95 94 92 93 97 0
Route 5 : 0 31 35 37 38 39 36 34 0
Route 6 : 0 13 17 18 19 15 16 14 0
Route 7 : 0 7 8 10 11 9 12 4 0
Route 8 : 0 84 100 99 2 1 75 0
Route 9 : 0 86 83 82 85 88 89 91 0
Route 10 : 0 57 25 40 44 46 45 48 0
Route 11 : 0 32 33 27 29 30 28 26 0
Route 12 : 0 90 87 6 0
Route 13 : 0 64 51 50 52 49 47 0
Route 14 : 0 68 66 0
Route 1 : 0 81 78 76 71 70 73 77 0
Route 2 : 0 63 62 74 72 61 79 80 0
Route 3 : 0 55 54 53 56 58 60 59 0
Route 4 : 0 98 96 95 94 92 93 97 0
Route 5 : 0 31 35 37 38 39 36 34 0
Route 6 : 0 13 17 18 19 15 16 14 0
Route 7 : 0 7 8 10 11 9 12 4 0
Route 8 : 0 84 100 99 2 1 75 0
Route 9 : 0 86 83 82 85 88 89 91 0
Route 10 : 0 57 25 40 44 46 45 48 0
Route 11 : 0 32 33 27 29 30 28 26 0
Route 12 : 0 90 87 6 0
Route 13 : 0 64 51 50 52 49 47 0
Route 14 : 0 68 66 69 0
Route 1 : 0 81 78 76 71 70 73 77 0
Route 2 : 0 63 62 74 72 61 79 80 0
Route 3 : 0 55 54 53 56 58 60 59 0
Route 4 : 0 98 96 95 94 92 93 97 0
Route 5 : 0 31 35 37 38 39 36 34 0
Route 6 : 0 13 17 18 19 15 16 14 0
Route 7 : 0 7 8 10 11 9 12 4 0
Route 8 : 0 84 100 99 2 1 75 0
Route 9 : 0 86 83 82 85 88 89 91 0
Route 10 : 0 57 25 40 44 46 45 48 0
Route 11 : 0 32 33 27 29 30 28 26 0
Route 12 : 0 90 87 6 0
Route 13 : 0 64 51 50 52 49 47 0
Route 14 : 0 68 66 69 0
Route 15 : 0 42 0
Route 1 : 0 81 78 76 71 70 73 77 0
Route 2 : 0 63 62 74 72 61 79 80 0
Route 3 : 0 55 54 53 56 58 60 59 0
Route 4 : 0 98 96 95 94 92 93 97 0
Route 5 : 0 31 35 37 38 39 36 34 0
Route 6 : 0 13 17 18 19 15 16 14 0
Route 7 : 0 7 8 10 11 9 12 4 0
Route 8 : 0 84 100 99 2 1 75 0
Route 9 : 0 86 83 82 85 88 89 91 0
Route 10 : 0 57 25 40 44 46 45 48 0
Route 11 : 0 32 33 27 29 30 28 26 0
Route 12 : 0 90 87 6 0
Route 13 : 0 64 51 50 52 49 47 0
Route 14 : 0 68 66 69 0
Route 15 : 0 43 42 0
Route 1 : 0 81 78 76 71 70 73 77 0
Route 2 : 0 63 62 74 72 61 79 80 0
Route 3 : 0 55 54 53 56 58 60 59 0
Route 4 : 0 98 96 95 94 92 93 97 0
Route 5 : 0 31 35 37 38 39 36 34 0
Route 6 : 0 13 17 18 19 15 16 14 0
Route 7 : 0 7 8 10 11 9 12 4 0
Route 8 : 0 84 100 99 2 1 75 0
Route 9 : 0 86 83 82 85 88 89 91 0
Route 10 : 0 57 25 40 44 46 45 48 0
Route 11 : 0 32 33 27 29 30 28 26 0
Route 12 : 0 90 87 6 0
Route 13 : 0 64 51 50 52 49 47 0
Route 14 : 0 68 66 69 0
Route 15 : 0 43 42 41 0
Route 1 : 0 81 78 76 71 70 73 77 0
Route 2 : 0 63 62 74 72 61 79 80 0
Route 3 : 0 55 54 53 56 58 60 59 0
Route 4 : 0 98 96 95 94 92 93 97 0
Route 5 : 0 31 35 37 38 39 36 34 0
Route 6 : 0 13 17 18 19 15 16 14 0
Route 7 : 0 7 8 10 11 9 12 4 0
Route 8 : 0 84 100 99 2 1 75 0
Route 9 : 0 86 83 82 85 88 89 91 0
Route 10 : 0 57 25 40 44 46 45 48 0
Route 11 : 0 32 33 27 29 30 28 26 0
Route 12 : 0 90 87 6 0
Route 13 : 0 64 51 50 52 49 47 0
Route 14 : 0 68 66 69 0
Route 15 : 0 43 42 41 0
Route 16 : 0 3 0
Route 1 : 0 81 78 76 71 70 73 77 0
Route 2 : 0 63 62 74 72 61 79 80 0
Route 3 : 0 55 54 53 56 58 60 59 0
Route 4 : 0 98 96 95 94 92 93 97 0
Route 5 : 0 31 35 37 38 39 36 34 0
Route 6 : 0 13 17 18 19 15 16 14 0
Route 7 : 0 7 8 10 11 9 12 4 0
Route 8 : 0 84 100 99 2 1 75 0
Route 9 : 0 86 83 82 85 88 89 91 0
Route 10 : 0 57 25 40 44 46 45 48 0
Route 11 : 0 32 33 27 29 30 28 26 0
Route 12 : 0 90 87 6 0
Route 13 : 0 64 51 50 52 49 47 0
Route 14 : 0 68 66 69 0
Route 15 : 0 43 42 41 0
Route 16 : 0 5 3 0
Route 1 : 0 81 78 76 71 70 73 77 0
Route 2 : 0 63 62 74 72 61 79 80 0
Route 3 : 0 55 54 53 56 58 60 59 0
Route 4 : 0 98 96 95 94 92 93 97 0
Route 5 : 0 31 35 37 38 39 36 34 0
Route 6 : 0 13 17 18 19 15 16 14 0
Route 7 : 0 7 8 10 11 9 12 4 0
Route 8 : 0 84 100 99 2 1 75 0
Route 9 : 0 86 83 82 85 88 89 91 0
Route 10 : 0 57 25 40 44 46 45 48 0
Route 11 : 0 32 33 27 29 30 28 26 0
Route 12 : 0 90 87 6 0
Route 13 : 0 64 51 50 52 49 47 0
Route 14 : 0 68 66 69 0
Route 15 : 0 43 42 41 0
Route 16 : 0 5 3 0
Route 17 : 0 24 0
Route 1 : 0 81 78 76 71 70 73 77 0
Route 2 : 0 63 62 74 72 61 79 80 0
Route 3 : 0 55 54 53 56 58 60 59 0
Route 4 : 0 98 96 95 94 92 93 97 0
Route 5 : 0 31 35 37 38 39 36 34 0
Route 6 : 0 13 17 18 19 15 16 14 0
Route 7 : 0 7 8 10 11 9 12 4 0
Route 8 : 0 84 100 99 2 1 75 0
Route 9 : 0 86 83 82 85 88 89 91 0
Route 10 : 0 57 25 40 44 46 45 48 0
Route 11 : 0 32 33 27 29 30 28 26 0
Route 12 : 0 90 87 6 0
Route 13 : 0 64 51 50 52 49 47 0
Route 14 : 0 68 66 69 0
Route 15 : 0 43 42 41 0
Route 16 : 0 5 3 0
Route 17 : 0 20 24 0
Route 1 : 0 81 78 76 71 70 73 77 0
Route 2 : 0 63 62 74 72 61 79 80 0
Route 3 : 0 55 54 53 56 58 60 59 0
Route 4 : 0 98 96 95 94 92 93 97 0
Route 5 : 0 31 35 37 38 39 36 34 0
Route 6 : 0 13 17 18 19 15 16 14 0
Route 7 : 0 7 8 10 11 9 12 4 0
Route 8 : 0 84 100 99 2 1 75 0
Route 9 : 0 86 83 82 85 88 89 91 0
Route 10 : 0 57 25 40 44 46 45 48 0
Route 11 : 0 32 33 27 29 30 28 26 0
Route 12 : 0 90 87 6 0
Route 13 : 0 64 51 50 52 49 47 0
Route 14 : 0 68 66 69 0
Route 15 : 0 43 42 41 0
Route 16 : 0 5 3 0
Route 17 : 0 20 24 0
Route 18 : 0 23 0
Route 1 : 0 81 78 76 71 70 73 77 0
Route 2 : 0 63 62 74 72 61 79 80 0
Route 3 : 0 55 54 53 56 58 60 59 0
Route 4 : 0 98 96 95 94 92 93 97 0
Route 5 : 0 31 35 37 38 39 36 34 0
Route 6 : 0 13 17 18 19 15 16 14 0
Route 7 : 0 7 8 10 11 9 12 4 0
Route 8 : 0 84 100 99 2 1 75 0
Route 9 : 0 86 83 82 85 88 89 91 0
Route 10 : 0 57 25 40 44 46 45 48 0
Route 11 : 0 32 33 27 29 30 28 26 0
Route 12 : 0 90 87 6 0
Route 13 : 0 64 51 50 52 49 47 0
Route 14 : 0 68 66 69 0
Route 15 : 0 43 42 41 0
Route 16 : 0 5 3 0
Route 17 : 0 20 24 0
Route 18 : 0 23 21 0
Route 1 : 0 81 78 76 71 70 73 77 0
Route 2 : 0 63 62 74 72 61 79 80 0
Route 3 : 0 55 54 53 56 58 60 59 0
Route 4 : 0 98 96 95 94 92 93 97 0
Route 5 : 0 31 35 37 38 39 36 34 0
Route 6 : 0 13 17 18 19 15 16 14 0
Route 7 : 0 7 8 10 11 9 12 4 0
Route 8 : 0 84 100 99 2 1 75 0
Route 9 : 0 86 83 82 85 88 89 91 0
Route 10 : 0 57 25 40 44 46 45 48 0
Route 11 : 0 32 33 27 29 30 28 26 0
Route 12 : 0 90 87 6 0
Route 13 : 0 64 51 50 52 49 47 0
Route 14 : 0 68 66 69 0
Route 15 : 0 43 42 41 0
Route 16 : 0 5 3 0
Route 17 : 0 20 24 0
Route 18 : 0 23 22 21 0
Route 1 : 0 81 78 76 71 70 73 77 0
Route 2 : 0 63 62 74 72 61 79 80 0
Route 3 : 0 55 54 53 56 58 60 59 0
Route 4 : 0 98 96 95 94 92 93 97 0
Route 5 : 0 31 35 37 38 39 36 34 0
Route 6 : 0 13 17 18 19 15 16 14 0
Route 7 : 0 7 8 10 11 9 12 4 0
Route 8 : 0 84 100 99 2 1 75 0
Route 9 : 0 86 83 82 85 88 89 91 0
Route 10 : 0 57 25 40 44 46 45 48 0
Route 11 : 0 32 33 27 29 30 28 26 0
Route 12 : 0 90 87 6 0
Route 13 : 0 64 51 50 52 49 47 0
Route 14 : 0 68 66 69 0
Route 15 : 0 43 42 41 0
Route 16 : 0 5 3 0
Route 17 : 0 20 24 0
Route 18 : 0 23 22 21 0
Route 19 : 0 65 0
Route 1 : 0 81 78 76 71 70 73 77 0
Route 2 : 0 63 62 74 72 61 79 80 0
Route 3 : 0 55 54 53 56 58 60 59 0
Route 4 : 0 98 96 95 94 92 93 97 0
Route 5 : 0 31 35 37 38 39 36 34 0
Route 6 : 0 13 17 18 19 15 16 14 0
Route 7 : 0 7 8 10 11 9 12 4 0
Route 8 : 0 84 100 99 2 1 75 0
Route 9 : 0 86 83 82 85 88 89 91 0
Route 10 : 0 57 25 40 44 46 45 48 0
Route 11 : 0 32 33 27 29 30 28 26 0
Route 12 : 0 90 87 6 0
Route 13 : 0 64 51 50 52 49 47 0
Route 14 : 0 68 66 69 0
Route 15 : 0 43 42 41 0
Route 16 : 0 5 3 0
Route 17 : 0 20 24 0
Route 18 : 0 23 22 21 0
Route 19 : 0 67 65 0
